c A SAT instance generated from a 3-CNF formula that had 70 clauses and 10 variables
p cnf 10 70
9 2 4 0
-6 3 -4 0
1 8 -6 0
-2 -6 9 0
2 10 1 0
-7 2 -3 0
5 -10 -7 0
3 -5 7 0
-6 -1 9 0
9 -2 -1 0
-5 1 6 0
-6 4 1 0
1 5 8 0
7 4 -2 0
7 -9 2 0
-6 -1 -2 0
-9 2 -5 0
2 -9 -10 0
-10 -8 1 0
3 7 -1 0
2 -10 5 0
6 5 4 0
1 -8 4 0
3 8 -5 0
-7 -1 -2 0
-8 3 7 0
9 -2 -7 0
-7 -1 -4 0
-3 2 4 0
10 1 9 0
6 2 3 0
8 -6 4 0
-3 5 -9 0
2 10 -6 0
-10 1 7 0
7 -8 -10 0
5 -7 1 0
-6 10 9 0
7 3 9 0
9 -1 3 0
-1 10 -6 0
-10 8 -4 0
-8 -3 -7 0
10 4 7 0
10 8 -7 0
-9 10 -6 0
-3 8 7 0
4 7 -1 0
-2 -9 10 0
-4 -3 -9 0
-1 9 -8 0
10 -5 3 0
-1 9 -8 0
-5 1 -2 0
10 -9 1 0
-9 4 2 0
3 6 -1 0
-8 10 -7 0
-10 -5 3 0
4 -9 -6 0
5 -7 -1 0
9 8 6 0
-3 5 -2 0
5 1 10 0
-1 9 3 0
-6 4 7 0
-2 -4 -10 0
-10 -5 1 0
1 -2 -3 0
-2 8 -6 0
%
0

100 47 49 42 90 11 38 68 4 60
